(set-logic QF_S)
(declare-fun var_0xINPUT_25399 () String)
(assert (and (= (len var_0xINPUT_25399) 0) (= (len var_0xINPUT_25399) 0) (not (= var_0xINPUT_25399 "Example:")) (= (len var_0xINPUT_25399) 0) (not (= var_0xINPUT_25399 "4PH2ujcENG"))))
(check-sat var_0xINPUT_25399)